25380
30,99,267,279,296,318,445,790,1016,1072,1236,1268,1272,1283,1380,1563,1862,1891,1922,2069,2283,2452,2481,2584,2589,2714,2730,2827,2903,3090,3203,3451,3478,3509,3553,3578,3786,3836,4090,4091,4108,4117,4154,4356,4372,4439,4452,4695,4714,4793,4798,4858,4882
